
(set-logic ALL) 

(declare-datatype MyList ((Nil) (Cons (head Real) (tail MyList)) )) 
(declare-fun l0 () MyList) 
(declare-fun l1 () MyList) 
(declare-fun l2 () MyList) 
(declare-fun l3 () MyList) 
(declare-fun i0 () Real) 
(declare-fun i1 () Real) 
(assert (not (= l0 Nil)) )
(assert (not (is-Cons Nil)) )
(assert (and (= l1 Nil) (= l2 l2) (= l3 Nil) (= l0 l3)) )
(assert (= l2 l2) )
(assert (is-Nil Nil) )
(assert (not (is-Nil l1)) )
(assert (or (= l2 Nil) (= l0 Nil) (= l2 Nil)) )
(assert (or (is-Nil Nil) (is-Nil Nil) (is-Nil Nil)) )
(check-sat)
